% seed = 0

mint = 22;
% maxt = 43;

nActs = 22;
dur = [0,4,2,1,2,3,3,2,4,1,2,1,1,2,1,2,2,4,1,3,2,0];

nSkills = 12;
sreq = [| 0,0,0,0,0,0,0,0,0,0,0,0,
	| 0,1,0,0,1,0,0,0,0,2,0,0,
	| 0,1,0,0,0,0,0,0,0,1,0,0,
	| 2,0,0,0,1,0,0,0,0,0,1,0,
	| 0,0,0,0,0,0,0,0,0,0,2,0,
	| 0,0,0,2,0,0,1,0,0,0,1,0,
	| 0,0,0,0,0,1,1,0,0,0,0,0,
	| 0,0,0,1,0,0,2,0,0,0,0,0,
	| 0,0,0,0,1,0,0,1,0,0,0,0,
	| 0,0,0,0,0,0,0,1,0,1,0,0,
	| 0,0,1,0,0,0,0,1,0,0,1,0,
	| 0,0,1,0,1,0,0,0,0,0,0,0,
	| 0,0,0,0,1,0,0,1,0,1,0,0,
	| 0,0,1,0,1,0,0,0,0,0,0,0,
	| 0,0,1,0,0,0,0,0,0,1,0,0,
	| 0,0,0,0,0,0,1,0,0,1,0,0,
	| 0,0,1,1,0,0,0,0,0,0,0,0,
	| 0,1,1,0,0,0,0,0,0,0,0,1,
	| 0,0,0,0,0,0,0,0,0,1,1,0,
	| 0,1,0,0,0,0,0,0,1,0,1,0,
	| 0,1,0,0,2,0,0,0,0,1,0,0,
	| 0,0,0,0,0,0,0,0,0,0,0,0, |];

% SumOfsreq = 53;

nResources = 6;
mastery = [| false,false,true,true,true,false,true,false,false,true,true,false,
	| true,false,false,false,true,false,true,true,false,true,true,false,
	| true,false,false,true,false,true,true,false,false,false,true,true,
	| true,true,true,false,true,false,true,false,true,false,false,false,
	| true,false,true,false,true,true,true,false,false,true,false,false,
	| true,true,true,true,false,false,false,true,false,true,false,false, |];

nPrecs = 40;
pred = [1,1,1,2,2,2,3,3,3,4,4,4,5,5,6,7,7,7,8,8,8,9,9,9,10,10,11,11,12,12,13,13,14,15,16,17,18,19,20,21];
succ = [2,3,4,5,6,7,20,18,12,20,12,5,17,13,8,9,10,8,19,20,21,11,13,16,11,16,19,15,21,14,18,14,19,17,17,18,21,22,22,22];

nUnrels = 95;
unpred = [2,2,2,3,3,3,3,3,3,3,3,3,3,3,3,4,4,4,4,4,4,4,4,5,5,5,5,5,5,5,5,5,5,6,6,6,6,6,6,6,6,6,6,6,7,8,8,8,8,8,8,8,8,8,8,9,9,9,10,10,10,10,11,11,11,11,11,12,12,12,12,12,12,13,13,13,13,14,14,14,14,14,14,15,15,15,16,16,17,17,18,18,19,19,20];
unsucc = [3,4,12,4,5,6,7,8,9,10,11,13,15,16,17,6,7,8,9,10,11,15,16,6,7,8,9,10,11,12,15,16,20,7,9,10,11,12,13,14,15,16,17,18,12,9,10,11,12,13,14,15,16,17,18,10,12,20,12,13,14,20,12,13,14,16,20,13,15,16,17,18,20,15,16,17,20,15,16,17,18,20,21,16,19,20,19,20,19,20,19,20,20,21,21];

USEFUL_RES = [{},
	{1,2,4,5,6},
	{1,2,4,5,6},
	{1,2,3,4,5,6},
	{1,2,3},
	{1,2,3,4,5,6},
	{1,2,3,4,5},
	{1,2,3,4,5,6},
	{1,2,4,5,6},
	{1,2,5,6},
	{1,2,3,4,5,6},
	{1,2,4,5,6},
	{1,2,4,5,6},
	{1,2,4,5,6},
	{1,2,4,5,6},
	{1,2,3,4,5,6},
	{1,3,4,5,6},
	{1,3,4,5,6},
	{1,2,3,5,6},
	{1,2,3,4,6},
	{1,2,4,5,6},
	{}];

POTENTIAL_ACT = [{2,3,4,5,6,7,8,9,10,11,12,13,14,15,16,17,18,19,20,21},
	{2,3,4,5,6,7,8,9,10,11,12,13,14,15,16,19,20,21},
	{4,5,6,7,8,11,16,17,18,19,20},
	{2,3,4,6,7,8,9,11,12,13,14,15,16,17,18,20,21},
	{2,3,4,6,7,8,9,10,11,12,13,14,15,16,17,18,19,21},
	{2,3,4,6,8,9,10,11,12,13,14,15,16,17,18,19,20,21}];
